Minimize
	value: tt

Subject to
tt + 2000 s_1_1 > 0
tt - t_1_1 - 2000.000000 s_1_1 > -1996.762700
tt + 2000 s_2_1 > 0
tt - t_2_1 - 2000.000000 s_2_1 > -1993.326700
tt + 2000 s_1_2 > 0
tt - t_1_2 - 2000.000000 s_1_2 > -1987.315900
tt + 2000 s_2_2 > 0
tt - t_2_2 - 2000.000000 s_2_2 > -1981.090000
tt + 2000 s_1_3 > 0
tt - t_1_3 - 2000.000000 s_1_3 > -1994.238900
tt + 2000 s_2_3 > 0
tt - t_2_3 - 2000.000000 s_2_3 > -1988.516500
tt + 2000 s_1_4 > 0
tt - t_1_4 - 2000.000000 s_1_4 > -1998.134200
tt + 2000 s_2_4 > 0
tt - t_2_4 - 2000.000000 s_2_4 > -1995.661800
tt + 2000 s_1_5 > 0
tt - t_1_5 - 2019.593080 s_1_5 + 19.593080 s_1_4 > -1999.244300
tt + 2000 s_2_5 > 0
tt - t_2_5 - 2047.141240 s_2_5 + 47.141240 s_2_4 > -1997.933900
s_1_1 + s_2_1  = 1
s_1_2 + s_2_2  = 1
s_1_3 + s_2_3  = 1
s_1_4 + s_2_4  = 1
s_1_5 + s_2_5  = 1
t_1_1 - t_1_2 + 2000.000000 u_1_1_2 > 12.684100
t_1_2 - t_1_1 - 2000.000000 u_1_1_2 > -1996.762700
t_2_1 - t_2_2 + 2000.000000 u_2_1_2 > 18.910000
t_2_2 - t_2_1 - 2000.000000 u_2_1_2 > -1993.326700
t_1_1 - t_1_3 + 2000.000000 u_1_1_3 > 5.761100
t_1_3 - t_1_1 - 2000.000000 u_1_1_3 > -1996.762700
t_2_1 - t_2_3 + 2000.000000 u_2_1_3 > 11.483500
t_2_3 - t_2_1 - 2000.000000 u_2_1_3 > -1993.326700
t_1_1 - t_1_4 + 2000.000000 u_1_1_4 > 1.865800
t_1_4 - t_1_1 - 2000.000000 u_1_1_4 > -1996.762700
t_2_1 - t_2_4 + 2000.000000 u_2_1_4 > 4.338200
t_2_4 - t_2_1 - 2000.000000 u_2_1_4 > -1993.326700
t_1_5 - t_1_1 - 2000.000000 s_1_1 > -1992.571610
t_1_5 - t_2_1 - 2000.000000 s_2_1 > -1983.014320
t_2_5 - t_1_1 - 2000.000000 s_1_1 > -1992.571610
t_2_5 - t_2_1 - 2000.000000 s_2_1 > -1983.014320
t_1_2 - t_1_1 + 2000.000000 u_1_2_1 > 3.237300
t_1_1 - t_1_2 - 2000.000000 u_1_2_1 > -1987.315900
t_2_2 - t_2_1 + 2000.000000 u_2_2_1 > 6.673300
t_2_1 - t_2_2 - 2000.000000 u_2_2_1 > -1981.090000
t_1_2 - t_1_3 + 2000.000000 u_1_2_3 > 5.761100
t_1_3 - t_1_2 - 2000.000000 u_1_2_3 > -1987.315900
t_2_2 - t_2_3 + 2000.000000 u_2_2_3 > 11.483500
t_2_3 - t_2_2 - 2000.000000 u_2_2_3 > -1981.090000
t_1_2 - t_1_4 + 2000.000000 u_1_2_4 > 1.865800
t_1_4 - t_1_2 - 2000.000000 u_1_2_4 > -1987.315900
t_2_2 - t_2_4 + 2000.000000 u_2_2_4 > 4.338200
t_2_4 - t_2_2 - 2000.000000 u_2_2_4 > -1981.090000
t_1_5 - t_1_2 - 2000.000000 s_1_2 > -1983.124810
t_1_5 - t_2_2 - 2000.000000 s_2_2 > -1970.777620
t_2_5 - t_1_2 - 2000.000000 s_1_2 > -1983.124810
t_2_5 - t_2_2 - 2000.000000 s_2_2 > -1970.777620
t_1_3 - t_1_1 + 2000.000000 u_1_3_1 > 3.237300
t_1_1 - t_1_3 - 2000.000000 u_1_3_1 > -1994.238900
t_2_3 - t_2_1 + 2000.000000 u_2_3_1 > 6.673300
t_2_1 - t_2_3 - 2000.000000 u_2_3_1 > -1988.516500
t_1_3 - t_1_2 + 2000.000000 u_1_3_2 > 12.684100
t_1_2 - t_1_3 - 2000.000000 u_1_3_2 > -1994.238900
t_2_3 - t_2_2 + 2000.000000 u_2_3_2 > 18.910000
t_2_2 - t_2_3 - 2000.000000 u_2_3_2 > -1988.516500
t_1_3 - t_1_4 + 2000.000000 u_1_3_4 > 1.865800
t_1_4 - t_1_3 - 2000.000000 u_1_3_4 > -1994.238900
t_2_3 - t_2_4 + 2000.000000 u_2_3_4 > 4.338200
t_2_4 - t_2_3 - 2000.000000 u_2_3_4 > -1988.516500
t_1_5 - t_1_3 - 2000.000000 s_1_3 > -1990.047810
t_1_5 - t_2_3 - 2000.000000 s_2_3 > -1978.204120
t_2_5 - t_1_3 - 2000.000000 s_1_3 > -1990.047810
t_2_5 - t_2_3 - 2000.000000 s_2_3 > -1978.204120
t_1_4 - t_1_1 + 2000.000000 u_1_4_1 > 3.237300
t_1_1 - t_1_4 - 2000.000000 u_1_4_1 > -1998.134200
t_2_4 - t_2_1 + 2000.000000 u_2_4_1 > 6.673300
t_2_1 - t_2_4 - 2000.000000 u_2_4_1 > -1995.661800
t_1_4 - t_1_2 + 2000.000000 u_1_4_2 > 12.684100
t_1_2 - t_1_4 - 2000.000000 u_1_4_2 > -1998.134200
t_2_4 - t_2_2 + 2000.000000 u_2_4_2 > 18.910000
t_2_2 - t_2_4 - 2000.000000 u_2_4_2 > -1995.661800
t_1_4 - t_1_3 + 2000.000000 u_1_4_3 > 5.761100
t_1_3 - t_1_4 - 2000.000000 u_1_4_3 > -1998.134200
t_2_4 - t_2_3 + 2000.000000 u_2_4_3 > 11.483500
t_2_3 - t_2_4 - 2000.000000 u_2_4_3 > -1995.661800
t_1_5 - t_1_4 - 2000.000000 s_1_4 > -1993.943110
t_1_5 - t_2_4 - 2000.000000 s_2_4 > -1985.349420
t_2_5 - t_1_4 - 2000.000000 s_1_4 > -1993.943110
t_2_5 - t_2_4 - 2000.000000 s_2_4 > -1985.349420
t_1_5 - t_1_1 - 2000.000000 s_1_1 > -1992.571610
t_1_5 - t_2_1 - 2000.000000 s_2_1 > -1983.014320
t_2_5 - t_1_1 - 2000.000000 s_1_1 > -1992.571610
t_2_5 - t_2_1 - 2000.000000 s_2_1 > -1983.014320
t_1_5 - t_1_2 - 2000.000000 s_1_2 > -1983.124810
t_1_5 - t_2_2 - 2000.000000 s_2_2 > -1970.777620
t_2_5 - t_1_2 - 2000.000000 s_1_2 > -1983.124810
t_2_5 - t_2_2 - 2000.000000 s_2_2 > -1970.777620
t_1_5 - t_1_3 - 2000.000000 s_1_3 > -1990.047810
t_1_5 - t_2_3 - 2000.000000 s_2_3 > -1978.204120
t_2_5 - t_1_3 - 2000.000000 s_1_3 > -1990.047810
t_2_5 - t_2_3 - 2000.000000 s_2_3 > -1978.204120
t_1_5 - t_1_4 - 2000.000000 s_1_4 > -1993.943110
t_1_5 - t_2_4 - 2000.000000 s_2_4 > -1985.349420
t_2_5 - t_1_4 - 2000.000000 s_1_4 > -1993.943110
t_2_5 - t_2_4 - 2000.000000 s_2_4 > -1985.349420
Binary
s_1_1
s_2_1
s_1_2
s_2_2
s_1_3
s_2_3
s_1_4
s_2_4
s_1_5
s_2_5
u_1_1_2
u_2_1_2
u_1_1_3
u_2_1_3
u_1_1_4
u_2_1_4
u_1_2_1
u_2_2_1
u_1_2_3
u_2_2_3
u_1_2_4
u_2_2_4
u_1_3_1
u_2_3_1
u_1_3_2
u_2_3_2
u_1_3_4
u_2_3_4
u_1_4_1
u_2_4_1
u_1_4_2
u_2_4_2
u_1_4_3
u_2_4_3

End
